24
3 36 53 47 
2 31 25 
3 30 24 60 
3 4 15 32 
3 1 59 44 
2 43 16 
2 52 40 
3 22 44 50 
2 19 10 
3 26 4 14 
3 20 49 33 
3 54 16 47 
3 6 17 53 
3 18 35 48 
3 15 19 57 
1 54 
3 2 21 12 
2 3 42 
3 30 11 13 
2 58 38 
2 41 51 
1 55 
3 11 43 38 
2 46 37 
